\ This file has been generated by DOcplex
\ ENCODING=ISO-8859-1
\Problem name: dectiger problem

Maximize
 obj: - 23 aj_0 - 67 aj_1 - 67 aj_2 - 67 aj_3 - 36 aj_4 - 121 aj_5 - 67 aj_6
      - 121 aj_7 - 36 aj_8
Subject To
 c1: 402 aj_0 + 446 aj_1 + 446 aj_2 + 446 aj_3 + 415 aj_4 + 500 aj_5 + 446 aj_6
     + 500 aj_7 + 415 aj_8 - 402 a0_0 - 446 a0_1 - 446 a0_2 >= 0
 c2: 402 aj_0 + 446 aj_1 + 446 aj_2 + 446 aj_3 + 415 aj_4 + 500 aj_5 + 446 aj_6
     + 500 aj_7 + 415 aj_8 - 446 a0_0 - 415 a0_1 - 500 a0_2 >= 0
 c3: 402 aj_0 + 446 aj_1 + 446 aj_2 + 446 aj_3 + 415 aj_4 + 500 aj_5 + 446 aj_6
     + 500 aj_7 + 415 aj_8 - 446 a0_0 - 500 a0_1 - 415 a0_2 >= 0
 c4: aj_0 + aj_1 + aj_2 - a0_0 = 0
 c5: aj_3 + aj_4 + aj_5 - a0_1 = 0
 c6: aj_6 + aj_7 + aj_8 - a0_2 = 0
 c7: aj_0 + aj_1 + aj_2 + aj_3 + aj_4 + aj_5 + aj_6 + aj_7 + aj_8 = 1
 c8: aj_0 + aj_3 + aj_6 - a1_0 = 0
 c9: aj_1 + aj_4 + aj_7 - a1_1 = 0
 c10: aj_2 + aj_5 + aj_8 - a1_2 = 0

Bounds
       a0_0 <= 1
       a0_1 <= 1
       a0_2 <= 1
 0 <= a1_0 <= 1
 0 <= a1_1 <= 1
 0 <= a1_2 <= 1
       aj_0 <= 1
       aj_1 <= 1
       aj_2 <= 1
       aj_3 <= 1
       aj_4 <= 1
       aj_5 <= 1
       aj_6 <= 1
       aj_7 <= 1
       aj_8 <= 1

Binaries
 a1_0 a1_1 a1_2
End
